Phonons of Si
&inputph
 tr2_ph=1.0d-16,
 amass(1)=28.0855d0,
 ldisp=.true.,
 nq1=4,nq2=4,nq3=4,
 prefix='Si',
 fildyn='silicon.dyn',
/

