&CONTROL
 calculation = 'scf',
 restart_mode = 'from_scratch',
 prefix='Diamond',
 pseudo_dir='../',
 tstress=.true.,
 tprnfor=.true.,
/
&SYSTEM
 ibrav=2,
 celldm(1)=6.74d0,
 nat=2,
 ntyp=1,
 ecutwfc=80,
 occupations = 'fixed',
 use_all_frac = .true.,
/
&ELECTRONS
 conv_thr = 1.0D-8,
 mixing_mode = 'plain',
 mixing_beta = 0.7d0,
 diagonalization = 'cg',
/
&IONS
 ion_dynamics='bfgs',
/
&CELL
 cell_dynamics = 'bfgs',
 press=0.1d0,
/
ATOMIC_SPECIES
C 12.011d0 C_LDA.UPF

ATOMIC_POSITIONS
C 0.d0 0.d0 0.d0
C 0.25d0 0.25d0 0.25d0

K_POINTS automatic
  10 10 10 0 0 0

