&CONTROL
 calculation = 'relax',
 restart_mode = 'from_scratch',
 prefix='PTO2',
 pseudo_dir='./',
 tstress=.true.,
 tprnfor=.true.,
/
&SYSTEM
 ibrav=0,
 nat=5,
 ntyp=3,
 ecutwfc=100,
 occupations = 'fixed'
/
&ELECTRONS
 conv_thr = 1.0D-8,
 mixing_mode = 'plain',
 mixing_beta = 0.7d0,
 diagonalization = 'cg',
/
&IONS
 ion_dynamics='bfgs',
/
&CELL
 cell_dynamics = 'bfgs',
 press=0.1d0,
/
ATOMIC_SPECIES
 Pb 207.2d0 Pb_LDA.UPF
 Ti 47.88d0 Ti_LDA.UPF
 O  16.00d0 O_LDA.UPF

CELL_PARAMETERS angstrom 
3.8558   0   0
0   3.8558   0
0   0   4.0514

ATOMIC_POSITIONS crystal
Pb            0.0000000000        0.0000000000        1.0051904083
Ti            0.5000000000        0.5000000000        0.5395123895
O             0.5000000000        0.5000000000        0.0994787311
O             0.5000000000        0.0000000000        0.6115513795
O             0.0000000000        0.5000000000        0.6115513795

K_POINTS automatic
  7 7 5 0 0 0
