Phonons of CaCO3
&inputph
 tr2_ph=1.0d-16,
 amass(1)=40.078d0,
 amass(2)=12.0107d0,
 amass(3)=15.999d0,
 ldisp=.false.,
 epsil=.true.,
 prefix='CCOrand5',
 fildyn='calcite.rand5.dyn',
/
0.d0 0.d0 0.d0
