# &CONTROL
#  calculation = 'bands',
#  restart_mode= 'from_scratch',
#  prefix='Si',
#  pseudo_dir='./',
# /
# &SYSTEM
#  ibrav=2,
#  celldm(1)=10.1941d0,
#  nat=2,
#  ntyp=1,
#  nbnd=8,
#  ecutwfc=30,
#  ecutrho = 300,
#  occupations = 'fixed',
#  use_all_frac = .true.,
# /
# &ELECTRONS
#  conv_thr = 1.0D-8,
#  mixing_mode = 'plain',
#  mixing_beta = 0.7d0,
#  diagonalization = 'cg',
# /
# &IONS
#  ion_dynamics='bfgs',
# /
# &CELL
#  cell_dynamics = 'bfgs',
#  press=0.1d0,
# /
# ATOMIC_SPECIES
# Si 28.0855d0 Si_LDA.UPF

# ATOMIC_POSITIONS (alat)
# Si 0.d0 0.d0 0.d0
# Si 0.25d0 0.25d0 0.25d0

# K_POINTS {crystal_b}
# 14
#  0.500000  0.000000  0.500000   ! X
#  0.500000  0.250000  0.750000   ! W
#  0.500000  0.250000  0.750000   ! W
#  0.500000  0.500000  0.500000   ! L
#  0.500000  0.500000  0.500000   ! L
#  0.000000  0.000000  0.000000   ! Gamma
#  0.000000  0.000000  0.000000   ! Gamma
#  0.500000  0.000000  0.500000   ! X
#  0.500000  0.500000  1.000000   ! X_1
#  0.375000  0.375000  0.750000   ! K
#  0.375000  0.375000  0.750000   ! K
#  0.125000  0.125000  0.250000   ! U
#  0.125000  0.125000  0.250000   ! U
#  0.000000  0.000000  0.000000   ! Gamma

&control
  calculation = 'bands',
  restart_mode = 'from_scratch',
  prefix = 'Si',
  pseudo_dir = './'
  verbosity = 'high'
/

&system
  ibrav =  2,
  celldm(1) = 10.1941d0,
  nat =  2,
  ntyp = 1,
  ecutwfc = 30,
  ecutrho = 300,
  nbnd = 8
 /

&electrons
  conv_thr = 1e-8,
  mixing_beta = 0.7
 /

ATOMIC_SPECIES
  Si 28.086  Si_LDA.UPF

ATOMIC_POSITIONS (alat)
  Si 0.00 0.00 0.00
  Si 0.25 0.25 0.25

K_POINTS {crystal_b}
5
  0.0000 0.5000 0.0000 20  !L
  0.0000 0.0000 0.0000 30  !G
  -0.500 0.0000 -0.500 10  !X
  -0.375 0.2500 -0.375 30  !U
  0.0000 0.0000 0.0000 20  !G

