&BANDS
 prefix='Si',
 filband="Si.bandsplot"
/

