&CONTROL
 calculation = 'bands',
 prefix='CCO',
 pseudo_dir='./',
/
&SYSTEM
 ibrav=5,
 celldm(1)=12,
 celldm(4)=0.5,
 nat=2,
 ntyp=1,
 nbnd=8,
 ecutwfc=50,
 ecutrho=500,
 occupations = 'fixed',
 use_all_frac = .true.,
/
&ELECTRONS
 conv_thr = 1.0D-8,
 mixing_mode = 'plain',
 mixing_beta = 0.7d0,
 diagonalization = 'cg',
/
&IONS
 ion_dynamics='bfgs',
/
&CELL
 cell_dynamics = 'bfgs',
 press=0.1d0,
/
ATOMIC_SPECIES
 Ca 40.078d0 Ca_PBE.UPF
 C 12.0107d0 C_PBE.UPF
 O 16.00d0 O_PBE.UPF

ATOMIC_POSITIONS (crystal)
Ca       0.500000000   0.500000000   0.500000000
Ca       0.000000000   0.000000000   0.000000000
C        0.250000000   0.250000000   0.250000000
C        0.750000000   0.750000000   0.750000000
O        0.508611069   0.991388931   0.250000000
O        0.991388931   0.250000000   0.508611069
O        0.250000000   0.508611069   0.991388931
O        0.008611069   0.750000000   0.491388931
O        0.750000000   0.491388931   0.008611069
O        0.491388931   0.008611069   0.750000000

K_POINTS tpiba_b 
3
0.5d0 0.5d0 0.5d0 20
0.d0 0.d0 0.d0 20
1.d0 0.d0 0.d0 20

