&BANDS
 prefix='CCO',
 filband="CCO.bandsplot"
/

