&DOS
 prefix='CCO',
 fildos='CCO.dos'
 Emin=-8, Emax=18, DeltaE=0.1 
/
