&CONTROL
 calculation = 'vc-relax',
 restart_mode = 'from_scratch',
 prefix='CCO_k',
 pseudo_dir='./',
 tstress=.true.,
 tprnfor=.true.,
/
&SYSTEM
 ibrav=5,
 celldm(1)=12.0d0,
 celldm(4)=0.5d0,
 nat=10,
 ntyp=3,
 ecutwfc=50,
 occupations = 'fixed'
/
&ELECTRONS
 conv_thr = 1.0D-5,
 mixing_mode = 'plain',
 mixing_beta = 0.7d0,
 diagonalization = 'cg',
/
&IONS
 ion_dynamics='bfgs',
/
&CELL
 cell_dynamics = 'bfgs',
/
ATOMIC_SPECIES
 Ca 40.078d0 Ca_PBE.UPF
 C 12.0107d0 C_PBE.UPF
 O 16.00d0 O_PBE.UPF

ATOMIC_POSITIONS (crystal)
Ca       0.500000000   0.500000000   0.500000000
Ca       0.000000000   0.000000000   0.000000000
C        0.250000000   0.250000000   0.250000000
C        0.750000000   0.750000000   0.750000000
O        0.506900245   0.993099755   0.250000000
O        0.993099755   0.250000000   0.506900245
O        0.250000000   0.506900245   0.993099755
O        0.006900245   0.750000000   0.493099755
O        0.750000000   0.493099755   0.006900245
O        0.493099755   0.006900245   0.750000000

K_POINTS automatic
  5 5 5 0 0 0
