&CONTROL
 calculation = 'relax',
 restart_mode = 'from_scratch',
 prefix='Diamond',
 pseudo_dir='./',
 tstress=.true.,
 tprnfor=.true.,
/
&SYSTEM
 ibrav=0,
 celldm(1)=6.68d0,
 nat=2,
 ntyp=1,
 ecutwfc=40,
 occupations = 'fixed',
/
&ELECTRONS
 conv_thr = 1.0D-8,
 mixing_mode = 'plain',
 mixing_beta = 0.7d0,
 diagonalization = 'cg',
/
&IONS
 ion_dynamics='bfgs',
/
&CELL
 cell_dynamics = 'bfgs',
 press=0.1d0,
/
ATOMIC_SPECIES
C 12.011d0 C_LDA.UPF

ATOMIC_POSITIONS
C 0.d0 0.d0 0.d0
C 0.25d0 0.25d0 0.25d0

K_POINTS automatic
  6 6 6 0 0 0

CELL_PARAMETERS alat 
-0.5	-0.0005	0.4995
0.0005	0.5	0.4995
-0.5	0.5	0
